SDVRP instances/p01/p01_1050_tsplib0_splitx10_0.vrp
NAME:.\SDVRP_splitx10_
BEST_KNOWN: 0
COMMENT: 0
DIMENSION: 242
CAPACITY: 1600
EDGE_WEIGHT_FORMAT: FUNCTION
EDGE_WEIGHT_TYPE: EXACT_2D
NODE_COORD_SECTION
1 0.00000 0.00000
2 7 12
3 7 12
4 7 12
5 7 12
6 7 12
7 7 12
8 19 9
9 19 9
10 19 9
11 22 24
12 22 24
13 22 24
14 22 24
15 22 24
16 22 24
17 -10 -14
18 -10 -14
19 -10 -14
20 -10 -14
21 10 -10
22 10 -10
23 10 -10
24 10 -10
25 10 -10
26 -9 7
27 -9 7
28 -9 7
29 -9 7
30 -9 7
31 -9 7
32 -9 7
33 -13 23
34 -13 23
35 -13 23
36 -13 23
37 -13 23
38 -13 23
39 -13 23
40 1 22
41 1 22
42 1 22
43 1 22
44 1 22
45 1 22
46 22 -7
47 22 -7
48 22 -7
49 22 -7
50 22 -7
51 22 -7
52 21 -19
53 21 -19
54 21 -19
55 12 1
56 12 1
57 12 1
58 12 1
59 1 -8
60 1 -8
61 1 -8
62 -25 -15
63 -25 -15
64 -25 -15
65 -25 -15
66 -25 -15
67 -25 -15
68 -18 2
69 -18 2
70 -18 2
71 6 -24
72 6 -24
73 6 -24
74 6 -24
75 6 -24
76 6 -24
77 22 1
78 22 1
79 22 1
80 -3 -17
81 -3 -17
82 -3 -17
83 -3 -17
84 -3 -17
85 -13 -7
86 -13 -7
87 -17 -27
88 -17 -27
89 -17 -27
90 -17 -27
91 -17 -27
92 -17 -27
93 27 18
94 27 18
95 27 18
96 27 18
97 32 2
98 32 2
99 32 2
100 32 2
101 32 2
102 12 17
103 12 17
104 12 17
105 -14 17
106 -14 17
107 -14 17
108 -14 17
109 -22 12
110 -22 12
111 -22 12
112 -22 12
113 -22 12
114 -22 12
115 -23 -2
116 -23 -2
117 -23 -2
118 -23 -2
119 -3 28
120 -3 28
121 -3 28
122 -3 28
123 -3 28
124 -3 28
125 -3 28
126 0 8
127 0 8
128 0 8
129 13 27
130 13 27
131 13 27
132 28 8
133 28 8
134 28 8
135 28 -13
136 28 -13
137 28 -13
138 28 -13
139 28 -13
140 7 29
141 7 29
142 7 29
143 7 29
144 7 29
145 7 29
146 8 6
147 8 6
148 8 6
149 8 6
150 16 -30
151 16 -30
152 16 -30
153 16 -30
154 16 -30
155 16 -30
156 31 -7
157 31 -7
158 31 -7
159 31 -7
160 31 -7
161 31 -7
162 32 23
163 32 23
164 32 23
165 32 23
166 32 23
167 32 23
168 33 29
169 33 29
170 33 29
171 33 29
172 33 29
173 33 29
174 2 -18
175 2 -18
176 2 -18
177 15 -5
178 15 -5
179 15 -5
180 15 -5
181 15 -5
182 15 -5
183 29 -25
184 29 -25
185 29 -25
186 29 -25
187 29 -25
188 29 -25
189 29 -25
190 -25 -34
191 -25 -34
192 -25 -34
193 -25 -34
194 -25 -34
195 -25 -34
196 -20 -23
197 -20 -23
198 -20 -23
199 -20 -23
200 -20 -23
201 -9 -30
202 -9 -30
203 -9 -30
204 -9 -30
205 -25 24
206 -25 24
207 -25 24
208 0 -25
209 0 -25
210 0 -25
211 0 -25
212 0 -25
213 9 -30
214 9 -30
215 9 -30
216 2 -1
217 2 -1
218 2 -1
219 -5 -8
220 -5 -8
221 -5 -8
222 -5 -8
223 -5 -8
224 -5 -8
225 -5 -8
226 -5 15
227 -5 15
228 -5 15
229 -5 15
230 18 -12
231 18 -12
232 18 -12
233 18 -12
234 18 -12
235 18 -12
236 26 -3
237 26 -3
238 26 -3
239 26 -3
240 26 -3
241 26 -3
242 26 -3
DEMAND_SECTION
1 0
2 320
3 320
4 16
5 16
6 16
7 12
8 320
9 80
10 10
11 160
12 80
13 16
14 16
15 16
16 12
17 320
18 160
19 16
20 14
21 320
22 320
23 80
24 16
25 4
26 320
27 320
28 16
29 16
30 16
31 16
32 6
33 320
34 80
35 16
36 16
37 16
38 16
39 6
40 160
41 16
42 16
43 16
44 16
45 6
46 160
47 80
48 16
49 16
50 16
51 2
52 160
53 16
54 4
55 320
56 320
57 16
58 14
59 320
60 80
61 10
62 320
63 80
64 16
65 16
66 16
67 2
68 320
69 160
70 10
71 320
72 160
73 80
74 16
75 16
76 8
77 320
78 16
79 14
80 160
81 16
82 16
83 16
84 2
85 320
86 160
87 320
88 320
89 16
90 16
91 16
92 12
93 320
94 160
95 16
96 4
97 160
98 16
99 16
100 16
101 12
102 320
103 160
104 80
105 320
106 160
107 80
108 10
109 320
110 160
111 16
112 16
113 16
114 2
115 320
116 320
117 16
118 4
119 320
120 160
121 80
122 16
123 16
124 16
125 12
126 160
127 16
128 4
129 320
130 320
131 10
132 160
133 80
134 10
135 160
136 16
137 16
138 16
139 12
140 320
141 320
142 16
143 16
144 16
145 12
146 320
147 320
148 16
149 14
150 320
151 320
152 16
153 16
154 16
155 2
156 160
157 80
158 16
159 16
160 16
161 2
162 320
163 320
164 16
165 16
166 16
167 12
168 320
169 80
170 16
171 16
172 16
173 12
174 320
175 320
176 10
177 320
178 80
179 16
180 16
181 16
182 12
183 320
184 80
185 16
186 16
187 16
188 16
189 6
190 320
191 320
192 16
193 16
194 16
195 2
196 160
197 80
198 16
199 16
200 8
201 160
202 16
203 16
204 8
205 320
206 160
207 80
208 320
209 160
210 80
211 16
212 4
213 320
214 320
215 80
216 320
217 16
218 4
219 320
220 80
221 16
222 16
223 16
224 16
225 6
226 320
227 80
228 16
229 14
230 320
231 320
232 16
233 16
234 16
235 12
236 320
237 160
238 16
239 16
240 16
241 16
242 6
DEPOT_SECTION
1
-1
EOF