SDVRP instances/p01/p01_1050_tsplib0_splitx10_0.sol
241 -3 5 4 1 6 2 102 103 101 -7 92 95 93 132 131 133 97 99 100 98 96 158 159 155 157 156 160 48 47 -8 9 94 164 166 165 162 161 163 169 172 171 170 168 167 12 10 15 11 14 13 -22 20 24 21 23 174 175 173 59 -31 25 26 28 27 29 30 111 108 110 109 113 112 67 -33 38 37 35 36 32 34 204 205 206 106 104 107 105 -49 50 135 136 138 134 137 184 182 183 185 186 187 188 51 53 52 233 230 232 234 231 229 -54 56 57 55 147 145 146 148 -58 60 73 70 72 209 207 210 208 211 83 81 79 82 80 -68 69 115 116 117 114 66 63 64 61 62 65 199 196 195 197 198 -75 71 74 213 212 214 154 153 152 150 149 151 -78 77 76 237 239 240 235 238 236 241 46 45 176 178 180 179 181 177 -84 85 16 19 18 17 219 218 220 222 223 221 224 -90 91 87 86 89 88 193 192 189 191 190 194 203 200 201 202 -125 127 126 41 39 40 43 42 44 120 118 119 123 122 124 121 225 228 226 227 -128 130 129 143 142 139 141 140 144 -215 216 217 0 





OBJ=
1028.661
BEST_KNOWN=
0.000